
===== New CPLEX run =====
Instance: /home/yorig/tuner/mpils-tests/instances/miplib/easy/lotsize.mps
Config: /scratch/yorig/mpils-results-grid-ticks-10000/easy/16proc/seed-9/4_lotsize_seed-9_20260425_202405/expansion/config_param_CPXPARAM_MIP_Limits_AggForCut_1_iter_3.prm
========================

Selected objective sense:  MINIMIZE
Selected objective  name:  R1921
Selected RHS        name:  B
Selected bound      name:  BOUND
Version identifier: 22.1.2.0 | 2024-11-26 | 0edbb82fd
CPXPARAM_Threads                                 8
CPXPARAM_Parallel                                1
CPXPARAM_MIP_Cuts_Cliques                        -1
CPXPARAM_MIP_Cuts_FlowCovers                     2
CPXPARAM_MIP_Cuts_Implied                        2
CPXPARAM_MIP_Cuts_GUBCovers                      -1
CPXPARAM_MIP_Limits_GomoryCand                   50
CPXPARAM_MIP_Cuts_Gomory                         1
CPXPARAM_MIP_Cuts_PathCut                        -1
CPXPARAM_MIP_Cuts_MIRCut                         2
CPXPARAM_MIP_Cuts_Disjunctive                    -1
CPXPARAM_MIP_Limits_AggForCut                    1
CPXPARAM_Emphasis_MIP                            1
CPXPARAM_DetTimeLimit                            10000
Tried aggregator 1 time.
MIP Presolve eliminated 595 rows and 0 columns.
MIP Presolve added 1190 rows and 0 columns.
MIP Presolve modified 10 coefficients.
Reduced MIP has 2515 rows, 2985 columns, and 7755 nonzeros.
Reduced MIP has 1195 binaries, 0 generals, 0 SOSs, and 0 indicators.
Presolve time = 0.00 sec. (4.53 ticks)
Probing fixed 0 vars, tightened 5487 bounds.
Probing time = 0.01 sec. (18.38 ticks)
Tried aggregator 2 times.
Detecting symmetries...
MIP Presolve modified 1206 coefficients.
Aggregator did 10 substitutions.
Reduced MIP has 2505 rows, 2975 columns, and 7735 nonzeros.
Reduced MIP has 1195 binaries, 0 generals, 0 SOSs, and 0 indicators.
Presolve time = 0.00 sec. (6.66 ticks)
Probing fixed 0 vars, tightened 2401 bounds.
Probing time = 0.00 sec. (6.41 ticks)
Clique table members: 190.
MIP emphasis: integer feasibility.
MIP search method: dynamic search.
Parallel mode: deterministic, using up to 8 threads.
Root relaxation solution time = 0.01 sec. (9.71 ticks)

        Nodes                                         Cuts/
   Node  Left     Objective  IInf  Best Integer    Best Bound    ItCnt     Gap

      0     0   348385.3466   472                 348385.3466      882         
      0     0   573160.7767   462                   Cuts: 726     1890         
      0     0   755355.5481   556                   Cuts: 726     2510         
      0     0   791137.2923   576                   Cuts: 227     2765         
Detecting symmetries...
      0     2   791137.2923   576                 791137.2923     2765         
Elapsed time = 0.23 sec. (326.75 ticks, tree = 0.02 MB, solutions = 0)
    526   420   895162.2408   440                 791387.6612     9954         
   1051   952  1270271.9756   326                 791387.6612    18170         
   1596  1419  1647204.8305   200                 791387.6612    25957         
   2541  2274  1928694.4723    58                 791387.6612    32421         
*  3076+ 2583                      2256573.0000   791387.6612            64.93%
*  3137+ 2847                      2245038.0000   791387.6612            64.75%
*  3171  2882      integral     0  2222520.0000   791387.6612    36307   64.39%
*  3192  2918      integral     0  2215305.0000   791387.6612    36658   64.28%

Performing restart 1

Repeating presolve.
Tried aggregator 1 time.
MIP Presolve modified 1187 coefficients.
Reduced MIP has 2505 rows, 2975 columns, and 7735 nonzeros.
Reduced MIP has 1195 binaries, 0 generals, 0 SOSs, and 0 indicators.
Presolve time = 0.00 sec. (3.81 ticks)
Tried aggregator 1 time.
MIP Presolve modified 1017 coefficients.
Reduced MIP has 2505 rows, 2975 columns, and 7735 nonzeros.
Reduced MIP has 1195 binaries, 0 generals, 0 SOSs, and 0 indicators.
Presolve time = 0.00 sec. (5.12 ticks)
Represolve time = 0.02 sec. (18.64 ticks)
   3356     0   831123.0114   569  2215305.0000     Cuts: 192    41404   62.48%
   3356     0   849010.5467   574  2215305.0000     Cuts: 128    41621   61.68%
   3356     0   859443.5624   593  2215305.0000     Cuts: 115    41798   61.20%
   3356     2   859443.5624   593  2215305.0000   859443.5624    41798   61.20%
   3494    90   985324.6173   489  2215305.0000   870119.2659    47829   60.72%
   4021   538  1121742.9481   335  2215305.0000   870119.2659    55996   60.72%
   4469  1003  1022056.4261   307  2215305.0000   870119.2659    63700   60.72%
   4925  1453  1188626.0513   298  2215305.0000   870119.2659    71766   60.72%
*  7151+ 3569                      2172502.0000   870119.2659            59.95%
*  7212+ 3684                      2098502.0000   870119.2659            58.54%
*  7246  3689      integral     0  2091020.0000   870119.2659    88906   58.39%
Elapsed time = 2.76 sec. (3608.84 ticks, tree = 6.37 MB, solutions = 7)
*  7253  3698      integral     0  2069635.0000   870119.2659    89265   57.96%
*  7463  3797      integral     0  2004198.0000   870119.2659    89770   56.59%
*  7578  4037      integral     0  1965981.0000   870119.2659    91188   55.74%
*  7584  4006      integral     0  1952341.0000   870119.2659    91191   55.43%
*  7632  4007      integral     0  1928813.0000   870119.2659    91234   54.89%
*  8550  4749      integral     0  1918420.0000   873738.3758   102309   54.46%
*  9127+ 5303                      1898660.0000   882121.4397            53.54%
*  9137  5371      integral     0  1892232.0000   882121.4397   112689   53.38%
*  9324+ 5342                      1621398.0000   882121.4397            45.60%
*  9412+ 5342                      1619676.0000   882121.4397            45.54%
* 10147+ 4902                      1591469.0000   882121.4397            44.57%
* 10165+ 4902                      1587633.0000   882121.4397            44.44%
* 10174+ 4902                      1586753.0000   882121.4397            44.41%
  11962  6392  1310607.8428   333  1586753.0000   882121.4397   138604   44.41%
  15185  9401  1030365.8918   393  1586753.0000   882121.4397   169828   44.41%
  17820 12370  1436982.4574   215  1586753.0000   882121.4397   202664   44.41%
  19933 14214  1476906.1355   204  1586753.0000   882121.4397   227543   44.41%
  23106 16696   917699.1974   557  1586753.0000   882121.4397   253652   44.41%

Cover cuts applied:  65
Implied bound cuts applied:  22
Flow cuts applied:  712
Mixed integer rounding cuts applied:  648
Multi commodity flow cuts applied:  100
Gomory fractional cuts applied:  13

Root node processing (before b&c):
  Real time             =    0.23 sec. (325.07 ticks)
Parallel b&c, 8 threads:
  Real time             =    7.45 sec. (9678.15 ticks)
  Sync time (average)   =    0.74 sec.
  Wait time (average)   =    0.00 sec.
                          ------------
Total (root+branch&cut) =    7.67 sec. (10003.22 ticks)
Gap: 44.41%
Upper bound: 1.58675e+06
Lower bound: 882121
End of CPLEX run. Time: 7.67554 seconds

===== New CPLEX run =====
Instance: /home/yorig/tuner/mpils-tests/instances/miplib/easy/lotsize.mps
Config: /scratch/yorig/mpils-results-grid-ticks-10000/easy/16proc/seed-9/4_lotsize_seed-9_20260425_202405/expansion/config_param_CPXPARAM_MIP_Limits_AggForCut_2_iter_3.prm
========================

Selected objective sense:  MINIMIZE
Selected objective  name:  R1921
Selected RHS        name:  B
Selected bound      name:  BOUND
Version identifier: 22.1.2.0 | 2024-11-26 | 0edbb82fd
CPXPARAM_Threads                                 8
CPXPARAM_Parallel                                1
CPXPARAM_MIP_Cuts_Cliques                        -1
CPXPARAM_MIP_Cuts_FlowCovers                     2
CPXPARAM_MIP_Cuts_Implied                        2
CPXPARAM_MIP_Cuts_GUBCovers                      -1
CPXPARAM_MIP_Limits_GomoryCand                   50
CPXPARAM_MIP_Cuts_Gomory                         1
CPXPARAM_MIP_Cuts_PathCut                        -1
CPXPARAM_MIP_Cuts_MIRCut                         2
CPXPARAM_MIP_Cuts_Disjunctive                    -1
CPXPARAM_MIP_Limits_AggForCut                    2
CPXPARAM_Emphasis_MIP                            1
CPXPARAM_DetTimeLimit                            10000
Tried aggregator 1 time.
MIP Presolve eliminated 595 rows and 0 columns.
MIP Presolve added 1190 rows and 0 columns.
MIP Presolve modified 10 coefficients.
Reduced MIP has 2515 rows, 2985 columns, and 7755 nonzeros.
Reduced MIP has 1195 binaries, 0 generals, 0 SOSs, and 0 indicators.
Presolve time = 0.00 sec. (4.53 ticks)
Probing fixed 0 vars, tightened 5487 bounds.
Probing time = 0.01 sec. (18.38 ticks)
Tried aggregator 2 times.
Detecting symmetries...
MIP Presolve modified 1206 coefficients.
Aggregator did 10 substitutions.
Reduced MIP has 2505 rows, 2975 columns, and 7735 nonzeros.
Reduced MIP has 1195 binaries, 0 generals, 0 SOSs, and 0 indicators.
Presolve time = 0.00 sec. (6.66 ticks)
Probing fixed 0 vars, tightened 2401 bounds.
Probing time = 0.00 sec. (6.41 ticks)
Clique table members: 190.
MIP emphasis: integer feasibility.
MIP search method: dynamic search.
Parallel mode: deterministic, using up to 8 threads.
Root relaxation solution time = 0.01 sec. (9.71 ticks)

        Nodes                                         Cuts/
   Node  Left     Objective  IInf  Best Integer    Best Bound    ItCnt     Gap

      0     0   348385.3466   472                 348385.3466      882         
      0     0   572313.5958   462                   Cuts: 726     1889         
      0     0   814077.6466   574                   Cuts: 726     2693         
      0     0   903755.7732   675                   Cuts: 726     3276         
Detecting symmetries...
      0     2   903755.7732   675                 903755.7732     3276         
Elapsed time = 0.26 sec. (353.30 ticks, tree = 0.02 MB, solutions = 0)
    506   432   983266.7342   504                 904732.4186     8070         
   1158   947  1194959.2440   407                 904732.4186    16285         
   1839  1612  1328076.6127   334                 904732.4186    24976         
   2275  2010   990976.4159   551                 905703.2865    35389         
   2890  2696  1002937.1610   529                 905703.2865    43689         
*  2922+ 2661                      2221209.0000   905703.2865            59.22%
*  2964  2733      integral     0  2116430.0000   905703.2865    44145   57.21%
   3256  2901  1409605.0440   226  2116430.0000   905703.2865    47593   57.21%

Performing restart 1

Repeating presolve.
Tried aggregator 1 time.
MIP Presolve modified 1193 coefficients.
Reduced MIP has 2505 rows, 2975 columns, and 7735 nonzeros.
Reduced MIP has 1195 binaries, 0 generals, 0 SOSs, and 0 indicators.
Presolve time = 0.00 sec. (3.82 ticks)
Tried aggregator 1 time.
MIP Presolve modified 1037 coefficients.
Reduced MIP has 2505 rows, 2975 columns, and 7735 nonzeros.
Reduced MIP has 1195 binaries, 0 generals, 0 SOSs, and 0 indicators.
Presolve time = 0.00 sec. (5.12 ticks)
Represolve time = 0.02 sec. (17.83 ticks)
   3257     0   995862.0382   687  2116430.0000     Cuts: 557    54241   52.95%
   3257     0  1041614.7669   668  2116430.0000     Cuts: 454    54779   50.78%
   3257     0  1067800.0554   680  2116430.0000     Cuts: 400    55221   49.55%
   3257     2  1067800.0554   680  2116430.0000  1067800.0554    55221   49.55%
   3279     6  1095921.9561   648  2116430.0000  1067814.3070    55458   49.55%
   3341    71  1158133.3007   451  2116430.0000  1067983.6206    60740   49.54%
   5064  1542  1312702.7406   317  2116430.0000  1067983.6206    94413   49.54%
Elapsed time = 3.81 sec. (4332.36 ticks, tree = 2.32 MB, solutions = 2)
*  6268+ 2742                      2047849.0000  1067983.6206            47.85%
*  6292  2729      integral     0  2040298.0000  1067983.6206   106257   47.66%
*  6759  3096      integral     0  1980590.0000  1067983.6206   109935   46.08%
*  7214  3500      integral     0  1842849.0000  1067983.6206   114793   42.05%
*  7586  3711      integral     0  1837847.0000  1067983.6206   122022   41.89%
*  7590  3698      integral     0  1827052.0000  1067983.6206   122023   41.55%
*  8541+ 4489                      1619107.0000  1067983.6206            34.04%
*  8572+ 4489                      1613753.0000  1067983.6206            33.82%
*  8638+ 4382                      1613753.0000  1067983.6206            33.82%
   9186  4060  1283635.6852   415  1613753.0000  1067983.6206   158543   33.82%
  11154  5682  1508062.2641   272  1613753.0000  1067983.6206   192123   33.82%
  13687  8193  1569331.3272   214  1613753.0000  1067983.6206   236463   33.82%
  16659 10902  1125512.0904   709  1613753.0000  1067983.6206   276687   33.82%

Cover cuts applied:  38
Implied bound cuts applied:  18
Flow cuts applied:  774
Mixed integer rounding cuts applied:  1030
Multi commodity flow cuts applied:  45
Lift and project cuts applied:  7
Gomory fractional cuts applied:  6

Root node processing (before b&c):
  Real time             =    0.25 sec. (351.12 ticks)
Parallel b&c, 8 threads:
  Real time             =    8.49 sec. (9652.33 ticks)
  Sync time (average)   =    1.18 sec.
  Wait time (average)   =    0.00 sec.
                          ------------
Total (root+branch&cut) =    8.74 sec. (10003.46 ticks)
Gap: 33.82%
Upper bound: 1.61375e+06
Lower bound: 1.06798e+06
End of CPLEX run. Time: 8.74182 seconds
